Version identifier: 12.10.0.0 | 2019-11-26 | 843d4de
CPXPARAM_WorkMem                                 28672
Tried aggregator 2 times.
Aggregator did 30 substitutions.
Reduced MIP has 103 rows, 120 columns, and 462 nonzeros.
Reduced MIP has 120 binaries, 0 generals, 0 SOSs, and 0 indicators.
Presolve time = 0,00 sec. (0,44 ticks)
Found incumbent of value 90,000000 after 0,00 sec. (0,72 ticks)
Probing time = 0,00 sec. (0,16 ticks)
Tried aggregator 1 time.
Detecting symmetries...
MIP Presolve eliminated 30 rows and 0 columns.
MIP Presolve added 60 rows and 0 columns.
Reduced MIP has 133 rows, 120 columns, and 492 nonzeros.
Reduced MIP has 120 binaries, 0 generals, 0 SOSs, and 0 indicators.
Presolve time = 0,00 sec. (0,61 ticks)
Probing time = 0,00 sec. (0,15 ticks)
Clique table members: 322.
MIP emphasis: balance optimality and feasibility.
MIP search method: dynamic search.
Parallel mode: deterministic, using up to 16 threads.
Root relaxation solution time = 0,00 sec. (0,35 ticks)

        Nodes                                         Cuts/
   Node  Left     Objective  IInf  Best Integer    Best Bound    ItCnt     Gap

*     0+    0                           90,0000        0,0000           100,00%
*     0+    0                           52,0000        0,0000           100,00%
      0     0       30,0000    76       52,0000       30,0000       51   42,31%
      0     0       30,0000    76       52,0000      Cuts: 88      102   42,31%
      0     0       30,0000    76       52,0000      Cuts: 78      147   42,31%
*     0+    0                           51,0000       30,0000            41,18%
*     0+    0                           48,0000       30,0000            37,50%
      0     2       34,1071    70       48,0000       36,9833      172   22,95%
Elapsed time = 0,05 sec. (14,99 ticks, tree = 0,02 MB, solutions = 4)

Clique cuts applied:  8
Cover cuts applied:  34
Implied bound cuts applied:  6

Root node processing (before b&c):
  Real time             =    0,05 sec. (14,92 ticks)
Parallel b&c, 16 threads:
  Real time             =    0,03 sec. (6,48 ticks)
  Sync time (average)   =    0,02 sec.
  Wait time (average)   =    0,00 sec.
                          ------------
Total (root+branch&cut) =    0,08 sec. (21,40 ticks)
